14
1 0 4
2 0 3
3 0 5
3 1 1
3 2 5
4 0 5
4 1 4
4 2 5
4 3 3
5 0 3
6 2 3
6 3 2
6 5 5
7 0 5
7 1 4
7 2 4
7 3 2
7 4 5
8 0 2
8 5 2
8 6 5
9 0 3
9 1 1
9 3 1
9 7 5
10 3 3
10 4 5
10 5 4
10 7 2
10 9 2
11 1 4
11 2 2
11 3 2
11 4 5
11 8 1
11 9 1
12 0 1
12 1 1
12 2 3
12 4 1
12 5 3
12 8 1
12 11 2
13 3 4
13 4 2
13 9 5
13 10 3
13 11 2
